(set-logic UF)
(declare-sort Set 0)
(declare-sort Elem 0)
(declare-fun member (Elem Set) Bool)
(declare-fun subset (Set Set) Bool)
(declare-fun seteq (Set Set) Bool)
(declare-fun union (Set Set) Set)
(declare-fun intersection (Set Set) Set)
(declare-fun difference (Set Set) Set)
(declare-fun a () Set)
(declare-fun b () Set)
(declare-fun c () Set)
(assert (not (or (and (member (choice ((?x Elem)) (not (or (not (member ?x (difference c (intersection a b)))) (member ?x (union (difference c a) (difference c b)))))) c) (not (member (choice ((?x Elem)) (not (or (not (member ?x (difference c (intersection a b)))) (member ?x (union (difference c a) (difference c b)))))) a))) (not (member (choice ((?x Elem)) (not (or (not (member ?x (difference c (intersection a b)))) (member ?x (union (difference c a) (difference c b)))))) c)) (not (not (member (choice ((?x Elem)) (not (or (not (member ?x (difference c (intersection a b)))) (member ?x (union (difference c a) (difference c b)))))) a))))))
(assert (not (or (and (member (choice ((?x Elem)) (not (or (not (member ?x (difference c (intersection a b)))) (member ?x (union (difference c a) (difference c b)))))) c) (not (member (choice ((?x Elem)) (not (or (not (member ?x (difference c (intersection a b)))) (member ?x (union (difference c a) (difference c b)))))) a))) (not (member (choice ((?x Elem)) (not (or (not (member ?x (difference c (intersection a b)))) (member ?x (union (difference c a) (difference c b)))))) c)) (not (not (member (choice ((?x Elem)) (not (or (not (member ?x (difference c (intersection a b)))) (member ?x (union (difference c a) (difference c b)))))) a))))))
(assert (not (or (and (member (choice ((?x Elem)) (not (or (not (member ?x (difference c (intersection a b)))) (member ?x (union (difference c a) (difference c b)))))) c) (not (member (choice ((?x Elem)) (not (or (not (member ?x (difference c (intersection a b)))) (member ?x (union (difference c a) (difference c b)))))) a))) (not (member (choice ((?x Elem)) (not (or (not (member ?x (difference c (intersection a b)))) (member ?x (union (difference c a) (difference c b)))))) c)) (not (not (member (choice ((?x Elem)) (not (or (not (member ?x (difference c (intersection a b)))) (member ?x (union (difference c a) (difference c b)))))) a))))))
(assert (or (and (member (choice ((?x Elem)) (not (or (not (member ?x (difference c (intersection a b)))) (member ?x (union (difference c a) (difference c b)))))) c) (not (member (choice ((?x Elem)) (not (or (not (member ?x (difference c (intersection a b)))) (member ?x (union (difference c a) (difference c b)))))) a))) (not (member (choice ((?x Elem)) (not (or (not (member ?x (difference c (intersection a b)))) (member ?x (union (difference c a) (difference c b)))))) c)) (not (not (member (choice ((?x Elem)) (not (or (not (member ?x (difference c (intersection a b)))) (member ?x (union (difference c a) (difference c b)))))) a)))))
(assert (or (or (and (member (choice ((?x Elem)) (not (or (not (member ?x (difference c (intersection a b)))) (member ?x (union (difference c a) (difference c b)))))) c) (not (member (choice ((?x Elem)) (not (or (not (member ?x (difference c (intersection a b)))) (member ?x (union (difference c a) (difference c b)))))) a))) (not (member (choice ((?x Elem)) (not (or (not (member ?x (difference c (intersection a b)))) (member ?x (union (difference c a) (difference c b)))))) c)) (not (not (member (choice ((?x Elem)) (not (or (not (member ?x (difference c (intersection a b)))) (member ?x (union (difference c a) (difference c b)))))) a)))) (not (and (member (choice ((?x Elem)) (not (or (not (member ?x (difference c (intersection a b)))) (member ?x (union (difference c a) (difference c b)))))) c) (not (member (choice ((?x Elem)) (not (or (not (member ?x (difference c (intersection a b)))) (member ?x (union (difference c a) (difference c b)))))) a))))))
(assert (or (or (and (member (choice ((?x Elem)) (not (or (not (member ?x (difference c (intersection a b)))) (member ?x (union (difference c a) (difference c b)))))) c) (not (member (choice ((?x Elem)) (not (or (not (member ?x (difference c (intersection a b)))) (member ?x (union (difference c a) (difference c b)))))) a))) (not (member (choice ((?x Elem)) (not (or (not (member ?x (difference c (intersection a b)))) (member ?x (union (difference c a) (difference c b)))))) c)) (not (not (member (choice ((?x Elem)) (not (or (not (member ?x (difference c (intersection a b)))) (member ?x (union (difference c a) (difference c b)))))) a)))) (not (not (member (choice ((?x Elem)) (not (or (not (member ?x (difference c (intersection a b)))) (member ?x (union (difference c a) (difference c b)))))) c)))))
(assert (or (or (and (member (choice ((?x Elem)) (not (or (not (member ?x (difference c (intersection a b)))) (member ?x (union (difference c a) (difference c b)))))) c) (not (member (choice ((?x Elem)) (not (or (not (member ?x (difference c (intersection a b)))) (member ?x (union (difference c a) (difference c b)))))) a))) (not (member (choice ((?x Elem)) (not (or (not (member ?x (difference c (intersection a b)))) (member ?x (union (difference c a) (difference c b)))))) c)) (not (not (member (choice ((?x Elem)) (not (or (not (member ?x (difference c (intersection a b)))) (member ?x (union (difference c a) (difference c b)))))) a)))) (not (not (not (member (choice ((?x Elem)) (not (or (not (member ?x (difference c (intersection a b)))) (member ?x (union (difference c a) (difference c b)))))) a))))))
(check-sat)
(exit)
